K-Points 
 0                ! 
Monkhorst-Pack    ! 
11 11 11          ! 
21 21 21
