
2.690
     1.0    0.0    0.0
     0.0    1.0    0.0
     0.0    0.0    1.0
 4
Direct
  0.00  0.00  0.00
  0.00  0.50  0.50
  0.50  0.00  0.50
  0.50  0.50  0.00
